k = 64;
b = 32;
AtomicConstraints =  [|
1, 5|
	1, 6|
	1, 7|
	1, 8|
	1, 9|
	1, 10|
	1, 11|
	1, 12|
	1, 17|
	1, 18|
	1, 19|
	1, 20|
	1, 21|
	1, 22|
	1, 53|
	1, 40|
	1, 41|
	1, 50|
	1, 51|
	1, 47|
	1, 58|
	1, 57|
	1, 34|
	1, 48|
	1, 59|
	1, 56|
	1, 36|
	1, 60|
	1, 55|
	1, 35|
	1, 39|
	1, 46|
	1, 33|
	1, 38|
	1, 29|
	1, 30|
	1, 37|
	1, 31|
	1, 45|
	1, 43|
	1, 32|
	1, 44|
	1, 42|
	1, 52|
	1, 49|
	1, 54|
	2, 5|
	2, 6|
	2, 7|
	2, 8|
	2, 9|
	2, 10|
	2, 11|
	2, 12|
	2, 17|
	2, 18|
	2, 19|
	2, 20|
	2, 21|
	2, 22|
	2, 53|
	2, 40|
	2, 41|
	2, 50|
	2, 51|
	2, 47|
	2, 58|
	2, 57|
	2, 34|
	2, 48|
	2, 59|
	2, 56|
	2, 36|
	2, 60|
	2, 55|
	2, 35|
	2, 39|
	2, 46|
	2, 33|
	2, 38|
	2, 29|
	2, 30|
	2, 37|
	2, 31|
	2, 45|
	2, 43|
	2, 32|
	2, 44|
	2, 42|
	2, 52|
	2, 49|
	2, 54|
	3, 5|
	3, 6|
	3, 7|
	3, 8|
	3, 9|
	3, 10|
	3, 11|
	3, 12|
	3, 17|
	3, 18|
	3, 19|
	3, 20|
	3, 21|
	3, 22|
	3, 53|
	3, 40|
	3, 41|
	3, 50|
	3, 51|
	3, 47|
	3, 58|
	3, 57|
	3, 34|
	3, 48|
	3, 59|
	3, 56|
	3, 36|
	3, 60|
	3, 55|
	3, 35|
	3, 39|
	3, 46|
	3, 33|
	3, 38|
	3, 29|
	3, 30|
	3, 37|
	3, 31|
	3, 45|
	3, 43|
	3, 32|
	3, 44|
	3, 42|
	3, 52|
	3, 49|
	3, 54|
	4, 5|
	4, 6|
	4, 7|
	4, 8|
	4, 9|
	4, 10|
	4, 11|
	4, 12|
	4, 17|
	4, 18|
	4, 19|
	4, 20|
	4, 21|
	4, 22|
	4, 53|
	4, 40|
	4, 41|
	4, 50|
	4, 51|
	4, 47|
	4, 58|
	4, 57|
	4, 34|
	4, 48|
	4, 59|
	4, 56|
	4, 36|
	4, 60|
	4, 55|
	4, 35|
	4, 39|
	4, 46|
	4, 33|
	4, 38|
	4, 29|
	4, 30|
	4, 37|
	4, 31|
	4, 45|
	4, 43|
	4, 32|
	4, 44|
	4, 42|
	4, 52|
	4, 49|
	4, 54|
	5, 17|
	5, 18|
	5, 19|
	5, 20|
	5, 21|
	5, 22|
	6, 17|
	6, 18|
	6, 19|
	6, 20|
	6, 21|
	6, 22|
	7, 17|
	7, 18|
	7, 19|
	7, 20|
	7, 21|
	7, 22|
	8, 17|
	8, 18|
	8, 19|
	8, 20|
	8, 21|
	8, 22|
	9, 17|
	9, 18|
	9, 19|
	9, 20|
	9, 21|
	9, 22|
	10, 11|
	10, 12|
	10, 19|
	10, 21|
	10, 22|
	11, 12|
	11, 19|
	11, 21|
	11, 22|
	12, 19|
	12, 21|
	12, 22|
	13, 10|
	13, 11|
	13, 12|
	13, 19|
	13, 20|
	13, 21|
	13, 22|
	13, 26|
	13, 27|
	13, 28|
	13, 42|
	13, 52|
	13, 49|
	13, 54|
	13, 64|
	14, 10|
	14, 11|
	14, 12|
	14, 19|
	14, 20|
	14, 21|
	14, 22|
	14, 26|
	14, 27|
	14, 28|
	14, 42|
	14, 52|
	14, 49|
	14, 54|
	14, 64|
	15, 10|
	15, 11|
	15, 12|
	15, 17|
	15, 19|
	15, 20|
	15, 21|
	15, 22|
	15, 42|
	15, 52|
	15, 49|
	15, 54|
	16, 10|
	16, 11|
	16, 12|
	16, 17|
	16, 19|
	16, 20|
	16, 21|
	16, 22|
	16, 42|
	16, 52|
	16, 49|
	16, 54|
	17, 19|
	17, 20|
	18, 19|
	18, 20|
	23, 42|
	23, 49|
	23, 54|
	23, 64|
	24, 22|
	24, 42|
	24, 49|
	24, 54|
	24, 64|
	25, 22|
	25, 42|
	25, 52|
	25, 49|
	25, 54|
	25, 64|
	26, 21|
	26, 22|
	26, 42|
	26, 52|
	26, 49|
	26, 54|
	27, 21|
	27, 22|
	27, 42|
	27, 52|
	27, 49|
	27, 54|
	28, 21|
	28, 22|
	28, 42|
	28, 52|
	28, 49|
	28, 54|
	53, 40|
	41, 40|
	50, 40|
	50, 41|
	51, 40|
	51, 41|
	47, 53|
	47, 40|
	58, 53|
	58, 40|
	58, 41|
	58, 47|
	58, 48|
	57, 53|
	57, 40|
	57, 41|
	57, 50|
	57, 47|
	57, 58|
	57, 48|
	57, 59|
	34, 53|
	34, 40|
	34, 41|
	34, 50|
	34, 51|
	34, 47|
	34, 58|
	34, 57|
	34, 48|
	34, 59|
	34, 56|
	34, 60|
	48, 53|
	48, 40|
	48, 41|
	59, 53|
	59, 40|
	59, 41|
	59, 47|
	59, 48|
	56, 53|
	56, 40|
	56, 41|
	56, 50|
	56, 51|
	56, 47|
	56, 58|
	56, 48|
	56, 59|
	56, 60|
	36, 53|
	36, 40|
	36, 41|
	36, 50|
	36, 51|
	36, 47|
	36, 58|
	36, 57|
	36, 48|
	36, 59|
	36, 56|
	36, 60|
	36, 55|
	60, 53|
	60, 40|
	60, 41|
	60, 50|
	60, 51|
	60, 48|
	55, 53|
	55, 40|
	55, 41|
	55, 50|
	55, 51|
	55, 48|
	55, 59|
	55, 60|
	35, 53|
	35, 40|
	35, 41|
	35, 50|
	35, 51|
	35, 48|
	35, 59|
	35, 56|
	35, 60|
	35, 55|
	35, 39|
	39, 53|
	39, 40|
	39, 41|
	39, 50|
	39, 51|
	39, 60|
	46, 53|
	46, 40|
	46, 41|
	46, 50|
	46, 51|
	46, 60|
	46, 55|
	46, 39|
	33, 53|
	33, 40|
	33, 41|
	33, 50|
	33, 51|
	33, 60|
	33, 55|
	33, 35|
	33, 39|
	33, 46|
	33, 38|
	33, 37|
	33, 43|
	33, 32|
	38, 53|
	38, 40|
	38, 41|
	38, 50|
	38, 51|
	29, 53|
	29, 40|
	29, 41|
	29, 50|
	29, 51|
	29, 38|
	29, 37|
	29, 43|
	29, 32|
	30, 53|
	30, 40|
	30, 41|
	30, 50|
	30, 51|
	30, 38|
	30, 29|
	30, 37|
	30, 31|
	30, 43|
	30, 32|
	30, 44|
	37, 53|
	37, 40|
	37, 41|
	37, 50|
	37, 51|
	37, 43|
	37, 32|
	31, 53|
	31, 40|
	31, 41|
	31, 50|
	31, 51|
	31, 38|
	31, 37|
	31, 43|
	31, 32|
	31, 44|
	45, 53|
	45, 40|
	45, 41|
	45, 50|
	45, 51|
	45, 38|
	45, 29|
	45, 37|
	45, 31|
	45, 43|
	45, 32|
	45, 44|
	43, 40|
	43, 41|
	43, 50|
	43, 51|
	43, 32|
	32, 40|
	32, 41|
	32, 50|
	32, 51|
	44, 40|
	44, 41|
	44, 50|
	44, 51|
	44, 32|
	52, 21|
	52, 22|
	54, 21|
	63, 5|
	63, 6|
	63, 7|
	63, 8|
	63, 9|
	63, 10|
	63, 11|
	63, 12|
	63, 15|
	63, 16|
	63, 17|
	63, 18|
	63, 19|
	63, 20|
	63, 21|
	63, 22|
	63, 42|
	63, 52|
	63, 49|
	63, 54|
	61, 5|
	61, 6|
	61, 7|
	61, 8|
	61, 9|
	61, 10|
	61, 11|
	61, 12|
	61, 15|
	61, 16|
	61, 17|
	61, 18|
	61, 19|
	61, 20|
	61, 21|
	61, 22|
	61, 42|
	61, 52|
	61, 49|
	61, 54|
	62, 5|
	62, 6|
	62, 7|
	62, 8|
	62, 9|
	62, 10|
	62, 11|
	62, 12|
	62, 15|
	62, 16|
	62, 17|
	62, 18|
	62, 19|
	62, 20|
	62, 21|
	62, 22|
	62, 42|
	62, 52|
	62, 49|
	62, 54|];
DisjunctiveConstraints =  [|1, 34, 1, 2|
	2, 3, 2, 1|
	3, 4, 3, 2|
	6, 5, 6, 7|
	7, 6, 7, 8|
	8, 7, 8, 9|
	10, 20, 52, 10|
	11, 20, 52, 11|
	12, 20, 52, 12|
	15, 9, 41, 15|
	15, 49, 15, 17|
	24, 22, 24, 54|
	24, 25, 24, 23|
	25, 20, 25, 52|
	25, 22, 25, 54|
	27, 19, 51, 27|
	27, 26, 27, 28|
	59, 58, 59, 60|
	56, 57, 56, 55|
	36, 34, 36, 35|
	55, 56, 55, 39|
	35, 36, 35, 46|
	39, 55, 39, 38|
	46, 35, 46, 29|
	38, 21, 38, 53|
	38, 39, 38, 37|
	29, 21, 29, 53|
	29, 46, 29, 31|
	30, 21, 30, 53|
	30, 33, 30, 45|
	37, 53, 21, 37|
	31, 53, 21, 31|
	52, 21, 52, 53|
	52, 22, 52, 54|
	42, 21, 53, 42|
	49, 54, 49, 42|
	64, 21, 53, 64|
	63, 37, 63, 5|
	61, 62, 61, 63|
	62, 53, 21, 62|
	62, 50, 18, 62|
	62, 51, 19, 62|];
SoftAtomicConstraints =  [|
2, 1|
3, 2|
4, 3|
5, 6|
6, 7|
7, 8|
8, 9|
14, 13|
15, 16|
18, 17|
20, 19|
22, 21|
19, 22|
24, 23|
25, 24|
63, 25|
26, 27|
27, 28|
46, 29|
33, 30|
29, 31|
48, 32|
36, 35|
34, 36|
38, 37|
39, 38|
55, 39|
53, 41|
49, 42|
60, 43|
43, 44|
30, 45|
35, 46|
47, 48|
54, 49|
50, 51|
56, 55|
57, 56|
58, 59|
59, 60|
62, 61|
61, 63|];
DirectSuccessors =  [];
